#

176 atoms
3 atom types

0.0 15.3445667404 xlo xhi
0.0 13.2887846072 ylo yhi
0.0 12.5287862792 zlo zhi

7.672283370199998 7.672283370200002 4.4295948690000015 xy xz yz


Atom Type Labels

1 O
2 Zr
3 La


Atoms

1 La 7.672276926000001 4.429605525400001 5.4813445209
2 La 15.344560296200001 4.429605525400001 5.4813445209
3 La 11.5084186111 11.073997829000001 5.4813445209
4 La 19.1807019813 11.073997829000001 5.4813445209
5 La 11.508418611100003 6.6444029599000025 11.7457376605
6 La 19.180701981300004 6.6444029599000025 11.7457376605
7 La 15.344560296200001 13.288795263500003 11.7457376605
8 La 23.0168436664 13.288795263500003 11.7457376605
9 La 9.5903572423 3.3222009419000003 2.3491406620999995
10 La 17.2626406125 3.3222009419000003 2.3491406620999995
11 La 13.426498927399999 9.9665932455 2.3491406620999995
12 La 21.098782297599996 9.9665932455 2.3491406620999995
13 La 13.4264989274 5.5369983764000015 8.613533801700001
14 La 21.0987822976 5.5369983764000015 8.613533801700001
15 La 17.2626406125 12.181390680000002 8.613533801700001
16 La 24.9349239827 12.181390680000002 8.613533801700001
17 La 7.6722744181 6.6443990773 2.3491472988
18 La 15.3445577883 6.6443990773 2.3491472988
19 La 11.508416103199998 13.288791380900001 2.3491472988
20 La 19.180699473399997 13.288791380900001 2.3491472988
21 La 11.508416103200002 8.8591965118 8.613540438400001
22 La 19.1806994734 8.8591965118 8.613540438400001
23 La 15.3445577883 15.5035888154 8.613540438400001
24 La 23.0168411585 15.5035888154 8.613540438400001
25 La 5.7542044262 3.3222058513000006 2.3491452446999994
26 La 13.4264877964 3.3222058513000006 2.3491452446999994
27 La 9.590346111299999 9.966598154900002 2.3491452446999994
28 La 17.2626294815 9.966598154900002 2.3491452446999994
29 La 9.590346111300002 5.537003285800001 8.6135383843
30 La 17.262629481500003 5.537003285800001 8.6135383843
31 La 13.4264877964 12.181395589400003 8.6135383843
32 La 21.098771166600002 12.181395589400003 8.6135383843
33 Zr 9.590343793 7.751796947200002 5.481341472
34 Zr 17.2626271632 7.751796947200002 5.481341472
35 Zr 13.4264854781 14.396189250800001 5.481341472
36 Zr 21.098768848299997 14.396189250800001 5.481341472
37 Zr 13.426485478100002 9.966594381700002 11.7457346116
38 Zr 21.0987688483 9.966594381700002 11.7457346116
39 Zr 17.2626271632 16.610986685300002 11.7457346116
40 Zr 24.9349105334 16.610986685300002 11.7457346116
41 Zr 11.5084266175 4.429598811900001 5.4813348357
42 Zr 19.1807099877 4.429598811900001 5.4813348357
43 Zr 15.344568302599999 11.073991115500002 5.4813348357
44 Zr 23.0168516728 11.073991115500002 5.4813348357
45 Zr 15.3445683026 6.644396246400002 11.7457279753
46 Zr 23.0168516728 6.644396246400002 11.7457279753
47 Zr 19.180709987700002 13.288788550000001 11.7457279753
48 Zr 26.8529933579 13.288788550000001 11.7457279753
49 Zr 11.5084270417 6.644390723800001 2.3491471151
50 Zr 19.180710411899998 6.644390723800001 2.3491471151
51 Zr 15.344568726799999 13.2887830274 2.3491471151
52 Zr 23.016852096999997 13.2887830274 2.3491471151
53 Zr 15.3445687268 8.859188158300002 8.6135402547
54 Zr 23.016852097 8.859188158300002 8.6135402547
55 Zr 19.1807104119 15.5035804619 8.6135402547
56 Zr 26.8529937821 15.5035804619 8.6135402547
57 Zr 13.4264989165 7.751790037100002 5.4813453707
58 Zr 21.098782286699997 7.751790037100002 5.4813453707
59 Zr 17.2626406016 14.396182340700003 5.4813453707
60 Zr 24.934923971799996 14.396182340700003 5.4813453707
61 Zr 17.2626406016 9.966587471600002 11.745738510299999
62 Zr 24.934923971799996 9.966587471600002 11.745738510299999
63 Zr 21.0987822867 16.610979775200004 11.745738510299999
64 Zr 28.771065656899996 16.610979775200004 11.745738510299999
65 O 13.0958882009 5.727884393600001 5.994451122499999
66 O 20.7681715711 5.727884393600001 5.994451122499999
67 O 16.932029886 12.3722766972 5.994451122499999
68 O 24.6043132562 12.3722766972 5.994451122499999
69 O 16.932029886 7.942681828100002 12.258844262099998
70 O 24.6043132562 7.942681828100002 12.258844262099998
71 O 20.768171571099998 14.587074131700001 12.258844262099998
72 O 28.4404549413 14.587074131700001 12.258844262099998
73 O 11.5084328527 8.477427166200002 5.9944548506
74 O 19.1807162229 8.477427166200002 5.9944548506
75 O 15.3445745378 15.121819469800002 5.9944548506
76 O 23.016857908 15.121819469800002 5.9944548506
77 O 15.344574537800003 10.692224600700003 12.258847990200001
78 O 23.016857908000002 10.692224600700003 12.258847990200001
79 O 19.180716222900003 17.3366169043 12.258847990200001
80 O 26.8529995931 17.3366169043 12.258847990200001
81 O 13.095877704700001 7.5609080005000004 3.4021385672
82 O 20.7681610749 7.5609080005000004 3.4021385672
83 O 16.9320193898 14.2053003041 3.4021385672
84 O 24.60430276 14.2053003041 3.4021385672
85 O 16.932019389800004 9.775705435 9.666531706799999
86 O 24.604302760000003 9.775705435 9.666531706799999
87 O 20.7681610749 16.4200977386 9.666531706799999
88 O 28.440444445100002 16.4200977386 9.666531706799999
89 O 9.920970511600002 5.727872023000001 5.994440303
90 O 17.593253881800003 5.727872023000001 5.994440303
91 O 13.757112196700001 12.3722643266 5.994440303
92 O 21.429395566900002 12.3722643266 5.994440303
93 O 13.757112196700003 7.942669457500002 12.2588334426
94 O 21.429395566900002 7.942669457500002 12.2588334426
95 O 17.593253881800003 14.587061761100001 12.2588334426
96 O 25.265537252 14.587061761100001 12.2588334426
97 O 11.508423825899998 4.811361409400001 3.4021326534
98 O 19.1807071961 4.811361409400001 3.4021326534
99 O 15.344565510999997 11.455753713000002 3.4021326534
100 O 23.016848881199998 11.455753713000002 3.4021326534
101 O 15.344565510999999 7.026158843900002 9.666525793
102 O 23.016848881199998 7.026158843900002 9.666525793
103 O 19.1807071961 13.670551147500003 9.666525793
104 O 26.852990566299997 13.670551147500003 9.666525793
105 O 9.9209684778 7.560904182 3.4021363816999997
106 O 17.593251848 7.560904182 3.4021363816999997
107 O 13.757110162899998 14.2052964856 3.4021363816999997
108 O 21.4293935331 14.2052964856 3.4021363816999997
109 O 13.757110162900002 9.775701616500001 9.666529521300001
110 O 21.4293935331 9.775701616500001 9.666529521300001
111 O 17.593251848 16.4200939201 9.666529521300001
112 O 25.2655352182 16.4200939201 9.666529521300001
113 O 9.9209657577 3.131310752300001 4.9682358232
114 O 17.593249127900002 3.131310752300001 4.9682358232
115 O 13.757107442799999 9.775703055900001 4.9682358232
116 O 21.429390813 9.775703055900001 4.9682358232
117 O 13.7571074428 5.346108186800002 11.2326289628
118 O 21.429390813 5.346108186800002 11.2326289628
119 O 17.593249127900002 11.9905004904 11.2326289628
120 O 25.2655324981 11.9905004904 11.2326289628
121 O 7.672273857400001 7.0261636266000025 4.9682343202
122 O 15.344557227600001 7.0261636266000025 4.9682343202
123 O 11.5084155425 13.6705559302 4.9682343202
124 O 19.1806989127 13.6705559302 4.9682343202
125 O 11.508415542500002 9.240961061100002 11.232627459799998
126 O 19.180698912700002 9.240961061100002 11.232627459799998
127 O 15.344557227600001 15.8853533647 11.232627459799998
128 O 23.0168405978 15.8853533647 11.232627459799998
129 O 7.6722847086 4.429600636800001 3.1321904961999993
130 O 15.344568078800002 4.429600636800001 3.1321904961999993
131 O 11.5084263937 11.073992940400002 3.1321904961999993
132 O 19.1807097639 11.073992940400002 3.1321904961999993
133 O 11.5084263937 6.644398071300001 9.396583635799999
134 O 19.1807097639 6.644398071300001 9.396583635799999
135 O 15.344568078800002 13.288790374900001 9.396583635799999
136 O 23.016851449 13.288790374900001 9.396583635799999
137 O 5.4235969824 5.7278894275 1.29616036
138 O 13.0958803526 5.7278894275 1.29616036
139 O 9.259738667499999 12.372281731100001 1.29616036
140 O 16.9320220377 12.372281731100001 1.29616036
141 O 9.2597386675 7.942686862000001 7.5605534996
142 O 16.9320220377 7.942686862000001 7.5605534996
143 O 13.0958803526 14.587079165600002 7.5605534996
144 O 20.7681637228 14.587079165600002 7.5605534996
145 O 9.9209664291 5.7278661403 1.2961536227999997
146 O 17.5932497993 5.7278661403 1.2961536227999997
147 O 13.7571081142 12.372258443900002 1.2961536227999997
148 O 21.4293914844 12.372258443900002 1.2961536227999997
149 O 13.757108114200001 7.942663574800001 7.5605467624
150 O 21.4293914844 7.942663574800001 7.5605467624
151 O 17.5932497993 14.587055878400001 7.5605467624
152 O 25.2655331695 14.587055878400001 7.5605467624
153 O 7.672288882800001 1.8330365533000004 1.2961618632999998
154 O 15.344572252999999 1.8330365533000004 1.2961618632999998
155 O 11.5084305679 8.477428856900001 1.2961618632999998
156 O 19.1807139381 8.477428856900001 1.2961618632999998
157 O 11.508430567900001 4.047833987800002 7.5605550029
158 O 19.180713938100002 4.047833987800002 7.5605550029
159 O 15.344572253 10.692226291400003 7.5605550029
160 O 23.0168556232 10.692226291400003 7.5605550029
161 O 3.8361564722 2.2147967313000008 1.5660944503
162 O 11.5084398424 2.2147967313000008 1.5660944503
163 O 7.672298157299999 8.859189034900002 1.5660944503
164 O 15.344581527499999 8.859189034900002 1.5660944503
165 O 7.672298157300002 4.429594165800002 7.830487589900001
166 O 15.3445815275 4.429594165800002 7.830487589900001
167 O 11.508439842400001 11.073986469400003 7.830487589900001
168 O 19.1807232126 11.073986469400003 7.830487589900001
169 O 5.423583997600001 3.1313085974000012 4.968248379499999
170 O 13.0958673678 3.1313085974000012 4.968248379499999
171 O 9.2597256827 9.775700901000002 4.968248379499999
172 O 16.9320090529 9.775700901000002 4.968248379499999
173 O 9.259725682700003 5.346106031900002 11.232641519100001
174 O 16.9320090529 5.346106031900002 11.232641519100001
175 O 13.0958673678 11.990498335500002 11.232641519100001
176 O 20.768150738 11.990498335500002 11.232641519100001