# LAMMPS data file written by OVITO Basic 3.7.11
176 atoms
8 atom types

0.0 15.3445667404 xlo xhi
0.0 13.2887846072 ylo yhi
0.0 12.5287862792 zlo zhi

7.672283370199998 7.672283370200002 4.4295948690000015 xy xz yz

Masses

1 138.9055  # La
2 144.24  # Nd
3 150.36  # Sm
4 151.964  # Eu
5 157.25  # Gd
6 173.04  # Yb
7 91.224  # Zr
8 15.9994  # O

Atoms  # atomic

1 1 7.672276926000002 4.429605525400001 5.4813445209
2 1 15.344560296200001 4.429605525400001 5.4813445209
3 1 11.5084186111 11.073997829000001 5.4813445209
4 1 19.1807019813 11.073997829000001 5.4813445209
5 1 11.508418611100007 6.6444029599000025 11.7457376605
6 1 19.180701981300004 6.6444029599000025 11.7457376605
7 1 15.344560296200003 13.288795263500004 11.7457376605
8 1 23.016843666400003 13.288795263500004 11.7457376605
9 1 9.6003572423 3.322200941900001 2.3491406620999995
10 1 17.2626406125 3.322200941900001 2.3491406620999995
11 1 13.426498927399997 9.966593245500002 2.3491406620999995
12 1 21.0987822976 9.966593245500002 2.3491406620999995
13 1 13.4264989274 5.536998376400002 8.613533801700001
14 1 21.098782297600003 5.536998376400002 8.613533801700001
15 1 17.262640612499997 12.181390680000003 8.613533801700001
16 1 24.934923982700003 12.181390680000003 8.613533801700001
17 1 7.6722744181 6.6443990773 2.3491472988
18 1 15.3445577883 6.6443990773 2.3491472988
19 1 11.508416103199998 13.288791380900001 2.3491472988
20 1 19.1806994734 13.288791380900001 2.3491472988
21 1 11.508416103200002 8.859196511800004 8.613540438400001
22 1 19.180699473400008 8.859196511800004 8.613540438400001
23 1 15.3445577883 15.5035888154 8.613540438400001
24 1 23.0168411585 15.5035888154 8.613540438400001
25 1 5.7542044262 3.3222058513 2.3491452446999994
26 1 13.4264877964 3.3222058513 2.3491452446999994
27 1 9.5903461113 9.966598154900002 2.3491452446999994
28 1 17.262629481500003 9.966598154900002 2.3491452446999994
29 1 9.590346111300004 5.537003285800002 8.6135383843
30 1 17.262629481500003 5.537003285800002 8.6135383843
31 1 13.4264877964 12.181395589400003 8.6135383843
32 1 21.098771166600002 12.181395589400003 8.6135383843
33 7 9.590343793 7.7517969472000035 5.481341472
34 7 17.2626271632 7.7517969472000035 5.481341472
35 7 13.4264854781 14.396189250800001 5.481341472
36 7 21.0987688483 14.396189250800001 5.481341472
37 7 13.426485478100002 9.966594381700006 11.7457346116
38 7 21.098768848300008 9.966594381700006 11.7457346116
39 7 17.262627163200005 16.610986685300006 11.7457346116
40 7 24.934910533400004 16.610986685300006 11.7457346116
41 7 11.5084266175 4.429598811900002 5.4813348357
42 7 19.1807099877 4.429598811900002 5.4813348357
43 7 15.3445683026 11.073991115500002 5.4813348357
44 7 23.0168516728 11.073991115500002 5.4813348357
45 7 15.3445683026 6.644396246400003 11.7457279753
46 7 23.0168516728 6.644396246400003 11.7457279753
47 7 19.180709987700002 13.288788550000003 11.7457279753
48 7 26.8529933579 13.288788550000003 11.7457279753
49 7 11.508427041700001 6.644390723800001 2.3491471151
50 7 19.180710411899998 6.644390723800001 2.3491471151
51 7 15.3445687268 13.2887830274 2.3491471151
52 7 23.016852096999997 13.2887830274 2.3491471151
53 7 15.344568726800004 8.859188158300002 8.613540254699998
54 7 23.016852097 8.859188158300002 8.613540254699998
55 7 19.1807104119 15.5035804619 8.613540254699998
56 7 26.852993782099997 15.5035804619 8.613540254699998
57 7 13.426498916499998 7.751790037100003 5.4813453707
58 7 21.0987822867 7.751790037100003 5.4813453707
59 7 17.2626406016 14.396182340700005 5.4813453707
60 7 24.934923971800004 14.396182340700005 5.4813453707
61 7 17.2626406016 9.966587471600002 11.745738510299997
62 7 24.9349239718 9.966587471600002 11.745738510299997
63 7 21.098782286700004 16.610979775200004 11.745738510299997
64 7 28.771065656900003 16.610979775200004 11.745738510299997
65 8 13.095888200900001 5.727884393600002 5.994451122499998
66 8 20.7681715711 5.727884393600002 5.994451122499998
67 8 16.932029886 12.3722766972 5.994451122499998
68 8 24.6043132562 12.3722766972 5.994451122499998
69 8 16.932029886000002 7.942681828100003 12.258844262099997
70 8 24.604313256200005 7.942681828100003 12.258844262099997
71 8 20.7681715711 14.587074131700003 12.258844262099997
72 8 28.440454941300004 14.587074131700003 12.258844262099997
73 8 11.5084328527 8.477427166200002 5.9944548506
74 8 19.1807162229 8.477427166200002 5.9944548506
75 8 15.344574537799998 15.121819469800002 5.9944548506
76 8 23.016857907999995 15.121819469800002 5.9944548506
77 8 15.344574537800005 10.692224600700005 12.258847990200001
78 8 23.016857908000002 10.692224600700005 12.258847990200001
79 8 19.1807162229 17.3366169043 12.258847990200001
80 8 26.852999593099998 17.3366169043 12.258847990200001
81 8 13.095877704700001 7.560908000500002 3.4021385672
82 8 20.7681610749 7.560908000500002 3.4021385672
83 8 16.9320193898 14.205300304100003 3.4021385672
84 8 24.60430276 14.205300304100003 3.4021385672
85 8 16.9320193898 9.775705435000003 9.666531706799999
86 8 24.60430276 9.775705435000003 9.666531706799999
87 8 20.7681610749 16.4200977386 9.666531706799999
88 8 28.4404444451 16.4200977386 9.666531706799999
89 8 9.920970511600004 5.727872023000001 5.994440303
90 8 17.593253881800006 5.727872023000001 5.994440303
91 8 13.757112196700003 12.372264326600002 5.994440303
92 8 21.429395566900006 12.372264326600002 5.994440303
93 8 13.757112196700005 7.942669457500003 12.2588334426
94 8 21.429395566900006 7.942669457500003 12.2588334426
95 8 17.593253881800006 14.587061761100003 12.2588334426
96 8 25.265537252000005 14.587061761100003 12.2588334426
97 8 11.5084238259 4.811361409400002 3.4021326534
98 8 19.1807071961 4.811361409400002 3.4021326534
99 8 15.344565510999999 11.455753713000002 3.4021326534
100 8 23.016848881199998 11.455753713000002 3.4021326534
101 8 15.344565511 7.026158843900003 9.666525792999998
102 8 23.0168488812 7.026158843900003 9.666525792999998
103 8 19.1807071961 13.670551147500003 9.666525792999998
104 8 26.8529905663 13.670551147500003 9.666525792999998
105 8 9.9209684778 7.560904182000001 3.4021363816999997
106 8 17.593251848 7.560904182000001 3.4021363816999997
107 8 13.7571101629 14.205296485600002 3.4021363816999997
108 8 21.4293935331 14.205296485600002 3.4021363816999997
109 8 13.757110162900004 9.775701616500001 9.666529521300001
110 8 21.4293935331 9.775701616500001 9.666529521300001
111 8 17.593251848 16.4200939201 9.666529521300001
112 8 25.2655352182 16.4200939201 9.666529521300001
113 8 9.9209657577 3.1313107523000014 4.9682358232
114 8 17.593249127900002 3.1313107523000014 4.9682358232
115 8 13.757107442799997 9.775703055900001 4.9682358232
116 8 21.429390812999998 9.775703055900001 4.9682358232
117 8 13.757107442800002 5.346108186800002 11.2326289628
118 8 21.429390813 5.346108186800002 11.2326289628
119 8 17.593249127900002 11.9905004904 11.2326289628
120 8 25.2655324981 11.9905004904 11.2326289628
121 8 7.672273857400002 7.026163626600003 4.9682343202
122 8 15.3445572276 7.026163626600003 4.9682343202
123 8 11.5084155425 13.6705559302 4.9682343202
124 8 19.180698912699995 13.6705559302 4.9682343202
125 8 11.508415542500003 9.240961061100004 11.232627459799998
126 8 19.180698912700002 9.240961061100004 11.232627459799998
127 8 15.344557227600001 15.885353364700004 11.232627459799998
128 8 23.0168405978 15.885353364700004 11.232627459799998
129 8 7.6722847086 4.429600636800001 3.1321904961999993
130 8 15.344568078800005 4.429600636800001 3.1321904961999993
131 8 11.5084263937 11.073992940400004 3.1321904961999993
132 8 19.180709763900005 11.073992940400004 3.1321904961999993
133 8 11.508426393700002 6.644398071300001 9.396583635799999
134 8 19.180709763900005 6.644398071300001 9.396583635799999
135 8 15.344568078800004 13.288790374900003 9.396583635799999
136 8 23.016851449000004 13.288790374900003 9.396583635799999
137 8 5.423596982400001 5.7278894275 1.29616036
138 8 13.0958803526 5.7278894275 1.29616036
139 8 9.259738667499999 12.372281731100001 1.29616036
140 8 16.9320220377 12.372281731100001 1.29616036
141 8 9.259738667500002 7.942686862000003 7.5605534996
142 8 16.932022037700005 7.942686862000003 7.5605534996
143 8 13.0958803526 14.587079165600004 7.5605534996
144 8 20.768163722800004 14.587079165600004 7.5605534996
145 8 9.9209664291 5.7278661403 1.2961536227999995
146 8 17.5932497993 5.7278661403 1.2961536227999995
147 8 13.757108114200001 12.372258443900003 1.2961536227999995
148 8 21.429391484400007 12.372258443900003 1.2961536227999995
149 8 13.757108114200001 7.942663574800002 7.5605467624
150 8 21.429391484400004 7.942663574800002 7.5605467624
151 8 17.593249799300004 14.587055878400003 7.5605467624
152 8 25.265533169500003 14.587055878400003 7.5605467624
153 8 7.672288882799999 1.8330365533000004 1.2961618632999998
154 8 15.344572252999999 1.8330365533000004 1.2961618632999998
155 8 11.508430567899998 8.477428856900003 1.2961618632999998
156 8 19.1807139381 8.477428856900003 1.2961618632999998
157 8 11.508430567900001 4.047833987800002 7.5605550029
158 8 19.180713938100002 4.047833987800002 7.5605550029
159 8 15.344572252999999 10.692226291400004 7.5605550029
160 8 23.0168556232 10.692226291400004 7.5605550029
161 8 3.8361564722 2.2147967313000008 1.5660944503
162 8 11.5084398424 2.2147967313000008 1.5660944503
163 8 7.6722981573 8.859189034900004 1.5660944503
164 8 15.344581527499999 8.859189034900004 1.5660944503
165 8 7.672298157300001 4.429594165800001 7.8304875899
166 8 15.3445815275 4.429594165800001 7.8304875899
167 8 11.508439842400003 11.073986469400005 7.8304875899
168 8 19.1807232126 11.073986469400005 7.8304875899
169 8 5.423583997600001 3.1313085974000017 4.968248379499999
170 8 13.095867367800002 3.1313085974000017 4.968248379499999
171 8 9.259725682700001 9.775700901000002 4.968248379499999
172 8 16.932009052900003 9.775700901000002 4.968248379499999
173 8 9.259725682700003 5.346106031900003 11.232641519100001
174 8 16.932009052900003 5.346106031900003 11.232641519100001
175 8 13.095867367800002 11.990498335500003 11.232641519100001
176 8 20.768150738 11.990498335500003 11.232641519100001